% Generated by MiniZinc 2.9.3
% Solver library: /home/void/Workspace-Research/Code/fzn-minicpp/minizinc
% Command line invocation: minizinc --solver org.minicpp.ml --compile --no-output-ozn rcpsp-sat.mzn dzn/J60_6_2.dzn -D makespan=67 -o fzn-sat/J60_6_2.fzn 

predicate int_lin_le_imp(array [int] of int: as,array [int] of var int: bs,int: c,var bool: r);
predicate minicpp_cumulative(array [int] of var int: s,array [int] of var int: d,array [int] of var int: r,var int: b);
array [1..2] of int: X_INTRODUCED_78_ = [1,-1];
array [1..24] of int: X_INTRODUCED_147_ = [2,8,1,2,6,10,5,5,9,2,2,1,5,6,4,10,6,1,7,5,2,1,10,3];
array [1..24] of int: X_INTRODUCED_148_ = [5,9,1,3,10,4,8,4,1,7,4,10,8,10,2,1,9,6,3,2,6,6,6,2];
array [1..37] of int: X_INTRODUCED_150_ = [3,1,8,8,5,10,5,1,6,2,6,7,8,3,1,3,8,1,1,6,4,6,5,9,4,1,7,4,8,4,2,4,3,1,2,5,4];
array [1..37] of int: X_INTRODUCED_151_ = [7,8,1,4,4,8,8,8,4,9,1,10,10,6,8,1,7,7,9,1,10,10,9,5,1,10,9,6,4,4,4,2,6,6,6,8,2];
array [1..27] of int: X_INTRODUCED_153_ = [9,7,1,3,7,1,8,2,3,9,7,3,6,5,10,3,5,10,1,1,7,10,3,2,3,8,7];
array [1..27] of int: X_INTRODUCED_154_ = [7,4,10,7,4,8,5,8,4,7,8,7,6,10,2,9,5,9,6,5,4,2,6,10,6,8,5];
array [1..33] of int: X_INTRODUCED_156_ = [5,9,8,2,1,8,3,8,9,7,6,3,4,3,3,9,4,4,9,2,1,10,4,7,6,9,2,8,6,4,4,3,7];
array [1..33] of int: X_INTRODUCED_157_ = [8,8,1,8,4,4,1,3,4,10,4,6,7,7,9,6,1,2,10,9,6,2,5,4,6,4,4,2,4,10,6,2,5];
var 0..345: X_INTRODUCED_16_;
var 0..345: X_INTRODUCED_17_;
var 0..345: X_INTRODUCED_18_;
var 0..345: X_INTRODUCED_19_;
var 0..345: X_INTRODUCED_20_;
var 0..345: X_INTRODUCED_21_;
var 0..345: X_INTRODUCED_22_;
var 0..345: X_INTRODUCED_23_;
var 0..345: X_INTRODUCED_24_;
var 0..345: X_INTRODUCED_25_;
var 0..345: X_INTRODUCED_26_;
var 0..345: X_INTRODUCED_27_;
var 0..345: X_INTRODUCED_28_;
var 0..345: X_INTRODUCED_29_;
var 0..345: X_INTRODUCED_30_;
var 0..345: X_INTRODUCED_31_;
var 0..345: X_INTRODUCED_32_;
var 0..345: X_INTRODUCED_33_;
var 0..345: X_INTRODUCED_34_;
var 0..345: X_INTRODUCED_35_;
var 0..345: X_INTRODUCED_36_;
var 0..345: X_INTRODUCED_37_;
var 0..345: X_INTRODUCED_38_;
var 0..345: X_INTRODUCED_39_;
var 0..345: X_INTRODUCED_40_;
var 0..345: X_INTRODUCED_41_;
var 0..345: X_INTRODUCED_42_;
var 0..345: X_INTRODUCED_43_;
var 0..345: X_INTRODUCED_44_;
var 0..345: X_INTRODUCED_45_;
var 0..345: X_INTRODUCED_46_;
var 0..345: X_INTRODUCED_47_;
var 0..345: X_INTRODUCED_48_;
var 0..345: X_INTRODUCED_49_;
var 0..345: X_INTRODUCED_50_;
var 0..345: X_INTRODUCED_51_;
var 0..345: X_INTRODUCED_52_;
var 0..345: X_INTRODUCED_53_;
var 0..345: X_INTRODUCED_54_;
var 0..345: X_INTRODUCED_55_;
var 0..345: X_INTRODUCED_56_;
var 0..345: X_INTRODUCED_57_;
var 0..345: X_INTRODUCED_58_;
var 0..345: X_INTRODUCED_59_;
var 0..345: X_INTRODUCED_60_;
var 0..345: X_INTRODUCED_61_;
var 0..345: X_INTRODUCED_62_;
var 0..345: X_INTRODUCED_63_;
var 0..345: X_INTRODUCED_64_;
var 0..345: X_INTRODUCED_65_;
var 0..345: X_INTRODUCED_66_;
var 0..345: X_INTRODUCED_67_;
var 0..345: X_INTRODUCED_68_;
var 0..345: X_INTRODUCED_69_;
var 0..345: X_INTRODUCED_70_;
var 0..345: X_INTRODUCED_71_;
var 0..345: X_INTRODUCED_72_;
var 0..59: X_INTRODUCED_73_;
var 0..65: X_INTRODUCED_74_;
var 0..62: X_INTRODUCED_75_;
var bool: X_INTRODUCED_135_ ::var_is_introduced :: is_defined_var;
var bool: X_INTRODUCED_136_ ::var_is_introduced :: is_defined_var;
var bool: X_INTRODUCED_137_ ::var_is_introduced :: is_defined_var;
var bool: X_INTRODUCED_138_ ::var_is_introduced :: is_defined_var;
var bool: X_INTRODUCED_139_ ::var_is_introduced :: is_defined_var;
var bool: X_INTRODUCED_140_ ::var_is_introduced :: is_defined_var;
var bool: X_INTRODUCED_141_ ::var_is_introduced :: is_defined_var;
var bool: X_INTRODUCED_142_ ::var_is_introduced :: is_defined_var;
var bool: X_INTRODUCED_143_ ::var_is_introduced :: is_defined_var;
var bool: X_INTRODUCED_144_ ::var_is_introduced :: is_defined_var;
var bool: X_INTRODUCED_145_ ::var_is_introduced :: is_defined_var;
var bool: X_INTRODUCED_146_ ::var_is_introduced :: is_defined_var;
array [1..60] of var int: s:: output_array([1..60]) = [X_INTRODUCED_16_,X_INTRODUCED_17_,X_INTRODUCED_18_,X_INTRODUCED_19_,X_INTRODUCED_20_,X_INTRODUCED_21_,X_INTRODUCED_22_,X_INTRODUCED_23_,X_INTRODUCED_24_,X_INTRODUCED_25_,X_INTRODUCED_26_,X_INTRODUCED_27_,X_INTRODUCED_28_,X_INTRODUCED_29_,X_INTRODUCED_30_,X_INTRODUCED_31_,X_INTRODUCED_32_,X_INTRODUCED_33_,X_INTRODUCED_34_,X_INTRODUCED_35_,X_INTRODUCED_36_,X_INTRODUCED_37_,X_INTRODUCED_38_,X_INTRODUCED_39_,X_INTRODUCED_40_,X_INTRODUCED_41_,X_INTRODUCED_42_,X_INTRODUCED_43_,X_INTRODUCED_44_,X_INTRODUCED_45_,X_INTRODUCED_46_,X_INTRODUCED_47_,X_INTRODUCED_48_,X_INTRODUCED_49_,X_INTRODUCED_50_,X_INTRODUCED_51_,X_INTRODUCED_52_,X_INTRODUCED_53_,X_INTRODUCED_54_,X_INTRODUCED_55_,X_INTRODUCED_56_,X_INTRODUCED_57_,X_INTRODUCED_58_,X_INTRODUCED_59_,X_INTRODUCED_60_,X_INTRODUCED_61_,X_INTRODUCED_62_,X_INTRODUCED_63_,X_INTRODUCED_64_,X_INTRODUCED_65_,X_INTRODUCED_66_,X_INTRODUCED_67_,X_INTRODUCED_68_,X_INTRODUCED_69_,X_INTRODUCED_70_,X_INTRODUCED_71_,X_INTRODUCED_72_,X_INTRODUCED_73_,X_INTRODUCED_74_,X_INTRODUCED_75_];
array [1..24] of var int: X_INTRODUCED_149_ ::var_is_introduced  = [X_INTRODUCED_25_,X_INTRODUCED_31_,X_INTRODUCED_32_,X_INTRODUCED_33_,X_INTRODUCED_34_,X_INTRODUCED_35_,X_INTRODUCED_38_,X_INTRODUCED_39_,X_INTRODUCED_40_,X_INTRODUCED_43_,X_INTRODUCED_49_,X_INTRODUCED_50_,X_INTRODUCED_51_,X_INTRODUCED_52_,X_INTRODUCED_53_,X_INTRODUCED_56_,X_INTRODUCED_58_,X_INTRODUCED_59_,X_INTRODUCED_65_,X_INTRODUCED_67_,X_INTRODUCED_69_,X_INTRODUCED_71_,X_INTRODUCED_72_,X_INTRODUCED_74_];
array [1..37] of var int: X_INTRODUCED_152_ ::var_is_introduced  = [X_INTRODUCED_17_,X_INTRODUCED_18_,X_INTRODUCED_19_,X_INTRODUCED_20_,X_INTRODUCED_23_,X_INTRODUCED_24_,X_INTRODUCED_26_,X_INTRODUCED_27_,X_INTRODUCED_29_,X_INTRODUCED_31_,X_INTRODUCED_32_,X_INTRODUCED_34_,X_INTRODUCED_36_,X_INTRODUCED_37_,X_INTRODUCED_38_,X_INTRODUCED_41_,X_INTRODUCED_43_,X_INTRODUCED_44_,X_INTRODUCED_46_,X_INTRODUCED_48_,X_INTRODUCED_50_,X_INTRODUCED_52_,X_INTRODUCED_54_,X_INTRODUCED_55_,X_INTRODUCED_56_,X_INTRODUCED_57_,X_INTRODUCED_58_,X_INTRODUCED_59_,X_INTRODUCED_62_,X_INTRODUCED_64_,X_INTRODUCED_66_,X_INTRODUCED_67_,X_INTRODUCED_69_,X_INTRODUCED_71_,X_INTRODUCED_72_,X_INTRODUCED_73_,X_INTRODUCED_74_];
array [1..27] of var int: X_INTRODUCED_155_ ::var_is_introduced  = [X_INTRODUCED_17_,X_INTRODUCED_20_,X_INTRODUCED_21_,X_INTRODUCED_22_,X_INTRODUCED_23_,X_INTRODUCED_24_,X_INTRODUCED_25_,X_INTRODUCED_27_,X_INTRODUCED_28_,X_INTRODUCED_30_,X_INTRODUCED_38_,X_INTRODUCED_44_,X_INTRODUCED_47_,X_INTRODUCED_52_,X_INTRODUCED_53_,X_INTRODUCED_54_,X_INTRODUCED_55_,X_INTRODUCED_58_,X_INTRODUCED_59_,X_INTRODUCED_61_,X_INTRODUCED_62_,X_INTRODUCED_67_,X_INTRODUCED_69_,X_INTRODUCED_70_,X_INTRODUCED_71_,X_INTRODUCED_73_,X_INTRODUCED_75_];
array [1..33] of var int: X_INTRODUCED_158_ ::var_is_introduced  = [X_INTRODUCED_16_,X_INTRODUCED_18_,X_INTRODUCED_19_,X_INTRODUCED_26_,X_INTRODUCED_28_,X_INTRODUCED_29_,X_INTRODUCED_32_,X_INTRODUCED_33_,X_INTRODUCED_35_,X_INTRODUCED_36_,X_INTRODUCED_39_,X_INTRODUCED_42_,X_INTRODUCED_43_,X_INTRODUCED_44_,X_INTRODUCED_45_,X_INTRODUCED_47_,X_INTRODUCED_48_,X_INTRODUCED_53_,X_INTRODUCED_57_,X_INTRODUCED_58_,X_INTRODUCED_59_,X_INTRODUCED_60_,X_INTRODUCED_61_,X_INTRODUCED_62_,X_INTRODUCED_63_,X_INTRODUCED_64_,X_INTRODUCED_66_,X_INTRODUCED_67_,X_INTRODUCED_68_,X_INTRODUCED_70_,X_INTRODUCED_71_,X_INTRODUCED_74_,X_INTRODUCED_75_];
constraint int_lin_le(X_INTRODUCED_78_,[X_INTRODUCED_16_,X_INTRODUCED_19_],-8);
constraint int_lin_le(X_INTRODUCED_78_,[X_INTRODUCED_16_,X_INTRODUCED_40_],-8);
constraint int_lin_le(X_INTRODUCED_78_,[X_INTRODUCED_16_,X_INTRODUCED_71_],-8);
constraint int_lin_le(X_INTRODUCED_78_,[X_INTRODUCED_17_,X_INTRODUCED_24_],-7);
constraint int_lin_le(X_INTRODUCED_78_,[X_INTRODUCED_17_,X_INTRODUCED_26_],-7);
constraint int_lin_le(X_INTRODUCED_78_,[X_INTRODUCED_17_,X_INTRODUCED_34_],-7);
constraint int_lin_le(X_INTRODUCED_78_,[X_INTRODUCED_18_,X_INTRODUCED_20_],-8);
constraint int_lin_le(X_INTRODUCED_78_,[X_INTRODUCED_18_,X_INTRODUCED_21_],-8);
constraint int_lin_le(X_INTRODUCED_78_,[X_INTRODUCED_18_,X_INTRODUCED_25_],-8);
constraint int_lin_le(X_INTRODUCED_78_,[X_INTRODUCED_19_,X_INTRODUCED_37_],-1);
constraint int_lin_le(X_INTRODUCED_78_,[X_INTRODUCED_20_,X_INTRODUCED_23_],-4);
constraint int_lin_le(X_INTRODUCED_78_,[X_INTRODUCED_20_,X_INTRODUCED_33_],-4);
constraint int_lin_le(X_INTRODUCED_78_,[X_INTRODUCED_21_,X_INTRODUCED_22_],-10);
constraint int_lin_le(X_INTRODUCED_78_,[X_INTRODUCED_21_,X_INTRODUCED_40_],-10);
constraint int_lin_le(X_INTRODUCED_78_,[X_INTRODUCED_22_,X_INTRODUCED_28_],-7);
constraint int_lin_le(X_INTRODUCED_78_,[X_INTRODUCED_22_,X_INTRODUCED_50_],-7);
constraint int_lin_le(X_INTRODUCED_78_,[X_INTRODUCED_23_,X_INTRODUCED_27_],-4);
constraint int_lin_le(X_INTRODUCED_78_,[X_INTRODUCED_23_,X_INTRODUCED_30_],-4);
constraint int_lin_le(X_INTRODUCED_78_,[X_INTRODUCED_23_,X_INTRODUCED_35_],-4);
constraint int_lin_le(X_INTRODUCED_78_,[X_INTRODUCED_24_,X_INTRODUCED_41_],-8);
constraint int_lin_le(X_INTRODUCED_78_,[X_INTRODUCED_24_,X_INTRODUCED_57_],-8);
constraint int_lin_le(X_INTRODUCED_78_,[X_INTRODUCED_24_,X_INTRODUCED_70_],-8);
constraint int_lin_le(X_INTRODUCED_78_,[X_INTRODUCED_25_,X_INTRODUCED_44_],-5);
constraint int_lin_le(X_INTRODUCED_78_,[X_INTRODUCED_26_,X_INTRODUCED_36_],-8);
constraint int_lin_le(X_INTRODUCED_78_,[X_INTRODUCED_26_,X_INTRODUCED_45_],-8);
constraint int_lin_le(X_INTRODUCED_78_,[X_INTRODUCED_27_,X_INTRODUCED_29_],-8);
constraint int_lin_le(X_INTRODUCED_78_,[X_INTRODUCED_27_,X_INTRODUCED_31_],-8);
constraint int_lin_le(X_INTRODUCED_78_,[X_INTRODUCED_27_,X_INTRODUCED_42_],-8);
constraint int_lin_le(X_INTRODUCED_78_,[X_INTRODUCED_28_,X_INTRODUCED_38_],-4);
constraint int_lin_le(X_INTRODUCED_78_,[X_INTRODUCED_29_,X_INTRODUCED_51_],-4);
constraint int_lin_le(X_INTRODUCED_78_,[X_INTRODUCED_30_,X_INTRODUCED_32_],-7);
constraint int_lin_le(X_INTRODUCED_78_,[X_INTRODUCED_31_,X_INTRODUCED_48_],-9);
constraint int_lin_le(X_INTRODUCED_78_,[X_INTRODUCED_31_,X_INTRODUCED_56_],-9);
constraint int_lin_le(X_INTRODUCED_78_,[X_INTRODUCED_32_,X_INTRODUCED_75_],-1);
constraint int_lin_le(X_INTRODUCED_78_,[X_INTRODUCED_33_,X_INTRODUCED_47_],-3);
constraint int_lin_le(X_INTRODUCED_78_,[X_INTRODUCED_33_,X_INTRODUCED_68_],-3);
constraint int_lin_le(X_INTRODUCED_78_,[X_INTRODUCED_34_,X_INTRODUCED_60_],-10);
constraint int_lin_le(X_INTRODUCED_78_,[X_INTRODUCED_35_,X_INTRODUCED_58_],-4);
constraint int_lin_le(X_INTRODUCED_78_,[X_INTRODUCED_36_,X_INTRODUCED_39_],-10);
constraint int_lin_le(X_INTRODUCED_78_,[X_INTRODUCED_36_,X_INTRODUCED_46_],-10);
constraint int_lin_le(X_INTRODUCED_78_,[X_INTRODUCED_37_,X_INTRODUCED_66_],-6);
constraint int_lin_le(X_INTRODUCED_78_,[X_INTRODUCED_38_,X_INTRODUCED_43_],-8);
constraint int_lin_le(X_INTRODUCED_78_,[X_INTRODUCED_39_,X_INTRODUCED_52_],-4);
constraint int_lin_le(X_INTRODUCED_78_,[X_INTRODUCED_39_,X_INTRODUCED_63_],-4);
constraint int_lin_le(X_INTRODUCED_78_,[X_INTRODUCED_40_,X_INTRODUCED_43_],-1);
constraint int_lin_le(X_INTRODUCED_78_,[X_INTRODUCED_40_,X_INTRODUCED_63_],-1);
constraint int_lin_le(X_INTRODUCED_78_,[X_INTRODUCED_41_,X_INTRODUCED_51_],-1);
constraint int_lin_le(X_INTRODUCED_78_,[X_INTRODUCED_42_,X_INTRODUCED_49_],-6);
constraint int_lin_le(X_INTRODUCED_78_,[X_INTRODUCED_43_,X_INTRODUCED_60_],-7);
constraint int_lin_le(X_INTRODUCED_78_,[X_INTRODUCED_44_,X_INTRODUCED_74_],-7);
constraint int_lin_le(X_INTRODUCED_78_,[X_INTRODUCED_45_,X_INTRODUCED_49_],-9);
constraint int_lin_le(X_INTRODUCED_78_,[X_INTRODUCED_45_,X_INTRODUCED_51_],-9);
constraint int_lin_le(X_INTRODUCED_78_,[X_INTRODUCED_46_,X_INTRODUCED_55_],-9);
constraint int_lin_le(X_INTRODUCED_78_,[X_INTRODUCED_46_,X_INTRODUCED_67_],-9);
constraint int_lin_le(X_INTRODUCED_78_,[X_INTRODUCED_47_,X_INTRODUCED_49_],-6);
constraint int_lin_le(X_INTRODUCED_78_,[X_INTRODUCED_48_,X_INTRODUCED_53_],-1);
constraint int_lin_le(X_INTRODUCED_78_,[X_INTRODUCED_48_,X_INTRODUCED_54_],-1);
constraint int_lin_le(X_INTRODUCED_78_,[X_INTRODUCED_48_,X_INTRODUCED_65_],-1);
constraint int_lin_le(X_INTRODUCED_78_,[X_INTRODUCED_49_,X_INTRODUCED_64_],-4);
constraint int_lin_le(X_INTRODUCED_78_,[X_INTRODUCED_50_,X_INTRODUCED_72_],-10);
constraint int_lin_le(X_INTRODUCED_78_,[X_INTRODUCED_51_,X_INTRODUCED_52_],-8);
constraint int_lin_le(X_INTRODUCED_78_,[X_INTRODUCED_52_,X_INTRODUCED_54_],-10);
constraint int_lin_le(X_INTRODUCED_78_,[X_INTRODUCED_53_,X_INTRODUCED_73_],-2);
constraint int_lin_le(X_INTRODUCED_78_,[X_INTRODUCED_54_,X_INTRODUCED_72_],-9);
constraint int_lin_le(X_INTRODUCED_78_,[X_INTRODUCED_55_,X_INTRODUCED_64_],-5);
constraint int_lin_le(X_INTRODUCED_78_,[X_INTRODUCED_56_,X_INTRODUCED_59_],-1);
constraint int_lin_le(X_INTRODUCED_78_,[X_INTRODUCED_57_,X_INTRODUCED_68_],-10);
constraint int_lin_le(X_INTRODUCED_78_,[X_INTRODUCED_57_,X_INTRODUCED_73_],-10);
constraint int_lin_le(X_INTRODUCED_78_,[X_INTRODUCED_58_,X_INTRODUCED_67_],-9);
constraint int_lin_le(X_INTRODUCED_78_,[X_INTRODUCED_59_,X_INTRODUCED_62_],-6);
constraint int_lin_le(X_INTRODUCED_78_,[X_INTRODUCED_59_,X_INTRODUCED_73_],-6);
constraint int_lin_le(X_INTRODUCED_78_,[X_INTRODUCED_60_,X_INTRODUCED_61_],-2);
constraint int_lin_le(X_INTRODUCED_78_,[X_INTRODUCED_60_,X_INTRODUCED_62_],-2);
constraint int_lin_le(X_INTRODUCED_78_,[X_INTRODUCED_60_,X_INTRODUCED_69_],-2);
constraint int_lin_le(X_INTRODUCED_78_,[X_INTRODUCED_61_,X_INTRODUCED_66_],-5);
constraint int_lin_le(X_INTRODUCED_78_,[X_INTRODUCED_62_,X_INTRODUCED_65_],-4);
constraint int_lin_le(X_INTRODUCED_78_,[X_INTRODUCED_63_,X_INTRODUCED_69_],-6);
constraint int_lin_le(X_INTRODUCED_78_,[X_INTRODUCED_64_,X_INTRODUCED_66_],-4);
constraint int_lin_le(X_INTRODUCED_78_,[X_INTRODUCED_65_,X_INTRODUCED_70_],-3);
constraint int_lin_le(X_INTRODUCED_78_,[X_INTRODUCED_66_,X_INTRODUCED_75_],-4);
constraint int_lin_le(X_INTRODUCED_78_,[X_INTRODUCED_67_,X_INTRODUCED_71_],-2);
constraint int_lin_le(X_INTRODUCED_78_,[X_INTRODUCED_68_,X_INTRODUCED_69_],-4);
constraint int_lin_le(X_INTRODUCED_78_,[X_INTRODUCED_68_,X_INTRODUCED_71_],-4);
constraint int_lin_le(X_INTRODUCED_78_,[X_INTRODUCED_69_,X_INTRODUCED_74_],-6);
constraint int_lin_le(X_INTRODUCED_78_,[X_INTRODUCED_70_,X_INTRODUCED_74_],-10);
constraint int_lin_le(X_INTRODUCED_78_,[X_INTRODUCED_71_,X_INTRODUCED_72_],-6);
constraint int_lin_le(X_INTRODUCED_78_,[X_INTRODUCED_72_,X_INTRODUCED_75_],-6);
constraint bool_clause([X_INTRODUCED_135_,X_INTRODUCED_136_],[]);
constraint bool_clause([X_INTRODUCED_137_,X_INTRODUCED_138_],[]);
constraint bool_clause([X_INTRODUCED_139_,X_INTRODUCED_140_],[]);
constraint bool_clause([X_INTRODUCED_141_,X_INTRODUCED_142_],[]);
constraint bool_clause([X_INTRODUCED_143_,X_INTRODUCED_144_],[]);
constraint bool_clause([X_INTRODUCED_145_,X_INTRODUCED_146_],[]);
constraint minicpp_cumulative(X_INTRODUCED_149_,X_INTRODUCED_148_,X_INTRODUCED_147_,18);
constraint minicpp_cumulative(X_INTRODUCED_152_,X_INTRODUCED_151_,X_INTRODUCED_150_,24);
constraint minicpp_cumulative(X_INTRODUCED_155_,X_INTRODUCED_154_,X_INTRODUCED_153_,22);
constraint minicpp_cumulative(X_INTRODUCED_158_,X_INTRODUCED_157_,X_INTRODUCED_156_,25);
constraint int_lin_le_imp(X_INTRODUCED_78_,[X_INTRODUCED_35_,X_INTRODUCED_40_],-4,X_INTRODUCED_135_):: defines_var(X_INTRODUCED_135_);
constraint int_lin_le_imp(X_INTRODUCED_78_,[X_INTRODUCED_40_,X_INTRODUCED_35_],-1,X_INTRODUCED_136_):: defines_var(X_INTRODUCED_136_);
constraint int_lin_le_imp(X_INTRODUCED_78_,[X_INTRODUCED_35_,X_INTRODUCED_56_],-4,X_INTRODUCED_137_):: defines_var(X_INTRODUCED_137_);
constraint int_lin_le_imp(X_INTRODUCED_78_,[X_INTRODUCED_56_,X_INTRODUCED_35_],-1,X_INTRODUCED_138_):: defines_var(X_INTRODUCED_138_);
constraint int_lin_le_imp(X_INTRODUCED_78_,[X_INTRODUCED_35_,X_INTRODUCED_72_],-4,X_INTRODUCED_139_):: defines_var(X_INTRODUCED_139_);
constraint int_lin_le_imp(X_INTRODUCED_78_,[X_INTRODUCED_72_,X_INTRODUCED_35_],-6,X_INTRODUCED_140_):: defines_var(X_INTRODUCED_140_);
constraint int_lin_le_imp(X_INTRODUCED_78_,[X_INTRODUCED_40_,X_INTRODUCED_56_],-1,X_INTRODUCED_141_):: defines_var(X_INTRODUCED_141_);
constraint int_lin_le_imp(X_INTRODUCED_78_,[X_INTRODUCED_56_,X_INTRODUCED_40_],-1,X_INTRODUCED_142_):: defines_var(X_INTRODUCED_142_);
constraint int_lin_le_imp(X_INTRODUCED_78_,[X_INTRODUCED_40_,X_INTRODUCED_72_],-1,X_INTRODUCED_143_):: defines_var(X_INTRODUCED_143_);
constraint int_lin_le_imp(X_INTRODUCED_78_,[X_INTRODUCED_72_,X_INTRODUCED_40_],-6,X_INTRODUCED_144_):: defines_var(X_INTRODUCED_144_);
constraint int_lin_le_imp(X_INTRODUCED_78_,[X_INTRODUCED_56_,X_INTRODUCED_72_],-1,X_INTRODUCED_145_):: defines_var(X_INTRODUCED_145_);
constraint int_lin_le_imp(X_INTRODUCED_78_,[X_INTRODUCED_72_,X_INTRODUCED_56_],-6,X_INTRODUCED_146_):: defines_var(X_INTRODUCED_146_);
solve :: int_search(s,smallest,indomain_min,complete) satisfy;
